9 131
4 100
49 122
4 24
25 30
62 79
54 34
38 24
50 36
2 17
55 44
19 92
65 69
3 111
83 22
99 4
14 87
42 94
2 54
26 135
80 36
89 40
9 75
71 57
50 8
32 26
17 49
93 50
82 38
12 105
5 40
69 24
62 62
25 80
62 21
67 19
2 46
57 23
70 27
26 88
10 106
100 35
42 22
11 184
26 24
26 114
57 41
15 114
58 52
17 11
73 58
76 10
64 21
40 66
76 29
85 9
7 195
36 162
22 41
55 73
73 10
40 51
53 12
7 152
17 141
29 113
74 6
22 48
7 171
2 152
13 179
19 94
34 159
100 2
21 178
33 120
11 149
60 28
49 21
51 30
41 29
32 8
74 26
54 7
15 147
99 23
39 7
13 191
16 88
22 152
39 5
18 144
34 68
3 6
80 32
5 24
32 170
13 73
24 91
9 112
